n = 30
Q1 = [0 33 43 23 29 33 20 29 17 29 19 13 41 33 42 9 27 30 15 42 32 39 14 6 28 9 18 35 28 5; 0 0 35 39 30 37 47 35 29 34 26 22 31 38 33 38 10 33 21 28 47 35 9 7 47 11 21 26 46 43; 0 0 0 47 47 41 13 18 39 47 37 26 35 8 17 45 30 9 26 5 38 44 32 46 33 25 12 10 45 43; 0 0 0 0 17 12 31 42 9 19 39 16 42 31 33 7 8 9 20 39 44 25 22 29 42 49 27 29 47 43; 0 0 0 0 0 9 37 21 38 44 41 32 44 39 45 21 27 6 49 44 41 13 38 46 15 24 34 20 32 11; 0 0 0 0 0 0 36 39 39 32 19 16 8 32 49 15 5 33 19 29 21 46 12 34 32 29 24 40 34 32; 0 0 0 0 0 0 0 36 31 7 7 44 49 5 15 10 31 40 18 8 16 15 37 8 28 36 17 31 24 32; 0 0 0 0 0 0 0 0 49 32 22 41 45 47 37 31 6 16 24 29 33 26 38 36 47 20 11 21 18 32; 0 0 0 0 0 0 0 0 0 26 42 29 43 5 10 13 35 24 9 35 15 25 8 11 30 40 46 37 19 6; 0 0 0 0 0 0 0 0 0 0 9 47 14 16 35 29 27 29 8 50 11 7 43 23 20 15 17 17 44 38; 0 0 0 0 0 0 0 0 0 0 0 38 22 44 14 11 46 22 41 48 43 18 49 42 38 25 13 39 41 19; 0 0 0 0 0 0 0 0 0 0 0 0 45 33 35 25 48 24 6 44 30 50 8 17 22 24 37 43 42 41; 0 0 0 0 0 0 0 0 0 0 0 0 0 9 50 13 49 38 40 9 31 29 40 5 46 50 26 36 17 46; 0 0 0 0 0 0 0 0 0 0 0 0 0 0 50 43 19 20 32 14 46 41 12 44 42 8 30 30 46 48; 0 0 0 0 0 0 0 0 0 0 0 0 0 0 0 39 41 20 32 38 13 9 42 45 29 11 32 29 29 41; 0 0 0 0 0 0 0 0 0 0 0 0 0 0 0 0 21 45 9 21 47 20 50 26 18 22 29 39 50 16; 0 0 0 0 0 0 0 0 0 0 0 0 0 0 0 0 0 23 45 9 50 25 29 6 33 12 28 23 25 45; 0 0 0 0 0 0 0 0 0 0 0 0 0 0 0 0 0 0 38 30 25 43 17 21 41 7 14 46 41 7; 0 0 0 0 0 0 0 0 0 0 0 0 0 0 0 0 0 0 0 40 31 18 13 45 35 17 28 15 30 46; 0 0 0 0 0 0 0 0 0 0 0 0 0 0 0 0 0 0 0 0 46 50 38 18 6 32 48 30 23 43; 0 0 0 0 0 0 0 0 0 0 0 0 0 0 0 0 0 0 0 0 0 35 18 35 20 35 27 33 16 41; 0 0 0 0 0 0 0 0 0 0 0 0 0 0 0 0 0 0 0 0 0 0 22 5 23 37 36 8 45 37; 0 0 0 0 0 0 0 0 0 0 0 0 0 0 0 0 0 0 0 0 0 0 0 21 15 7 36 11 6 17; 0 0 0 0 0 0 0 0 0 0 0 0 0 0 0 0 0 0 0 0 0 0 0 0 11 21 11 7 27 32; 0 0 0 0 0 0 0 0 0 0 0 0 0 0 0 0 0 0 0 0 0 0 0 0 0 31 27 36 50 45; 0 0 0 0 0 0 0 0 0 0 0 0 0 0 0 0 0 0 0 0 0 0 0 0 0 0 44 6 13 14; 0 0 0 0 0 0 0 0 0 0 0 0 0 0 0 0 0 0 0 0 0 0 0 0 0 0 0 11 29 37; 0 0 0 0 0 0 0 0 0 0 0 0 0 0 0 0 0 0 0 0 0 0 0 0 0 0 0 0 30 7; 0 0 0 0 0 0 0 0 0 0 0 0 0 0 0 0 0 0 0 0 0 0 0 0 0 0 0 0 0 20; 0 0 0 0 0 0 0 0 0 0 0 0 0 0 0 0 0 0 0 0 0 0 0 0 0 0 0 0 0 0]
Q2 = [0.0 1.0 3.0 32.0 1.0 16.0 35.0 3.0 43.0 6.0 36.0 38.0 1.0 2.0 5.0 42.0 12.0 17.0 45.0 2.0 16.0 10.0 41.0 49.0 14.0 44.0 35.0 10.0 10.0 48.0; 0.0 0.0 3.0 0.0 5.0 12.0 0.0 14.0 3.0 0.0 21.0 34.0 17.0 3.0 0.0 4.0 43.0 10.0 29.0 6.0 1.0 2.0 44.0 43.0 1.0 42.0 31.0 5.0 3.0 6.0; 0.0 0.0 0.0 3.0 0.0 7.0 40.0 40.0 10.0 1.0 8.0 6.0 0.0 48.0 42.0 0.0 3.0 43.0 7.0 46.0 10.0 3.0 6.0 3.0 1.0 7.0 43.0 49.0 5.0 7.0; 0.0 0.0 0.0 0.0 44.0 50.0 5.0 1.0 47.0 40.0 9.0 50.0 7.0 3.0 10.0 46.0 43.0 49.0 35.0 9.0 2.0 0.0 41.0 21.0 7.0 1.0 13.0 6.0 2.0 7.0; 0.0 0.0 0.0 0.0 0.0 42.0 13.0 50.0 6.0 6.0 4.0 7.0 3.0 9.0 0.0 34.0 21.0 50.0 1.0 4.0 8.0 47.0 12.0 0.0 49.0 29.0 7.0 43.0 10.0 43.0; 0.0 0.0 0.0 0.0 0.0 0.0 1.0 11.0 2.0 1.0 38.0 48.0 45.0 9.0 1.0 40.0 49.0 16.0 49.0 12.0 42.0 3.0 46.0 0.0 7.0 5.0 29.0 2.0 7.0 18.0; 0.0 0.0 0.0 0.0 0.0 0.0 0.0 0.0 15.0 44.0 50.0 3.0 0.0 48.0 35.0 43.0 18.0 9.0 43.0 47.0 40.0 48.0 7.0 44.0 2.0 0.0 50.0 12.0 37.0 8.0; 0.0 0.0 0.0 0.0 0.0 0.0 0.0 0.0 0.0 13.0 33.0 4.0 1.0 0.0 5.0 7.0 48.0 40.0 27.0 8.0 16.0 14.0 1.0 12.0 1.0 50.0 43.0 37.0 50.0 5.0; 0.0 0.0 0.0 0.0 0.0 0.0 0.0 0.0 0.0 15.0 3.0 9.0 2.0 50.0 42.0 40.0 13.0 46.0 46.0 14.0 39.0 7.0 47.0 43.0 10.0 6.0 4.0 7.0 50.0 44.0; 0.0 0.0 0.0 0.0 0.0 0.0 0.0 0.0 0.0 0.0 42.0 0.0 48.0 43.0 2.0 1.0 0.0 21.0 48.0 0.0 44.0 43.0 0.0 41.0 39.0 36.0 50.0 47.0 6.0 2.0; 0.0 0.0 0.0 0.0 0.0 0.0 0.0 0.0 0.0 0.0 0.0 1.0 34.0 1.0 36.0 45.0 4.0 32.0 1.0 0.0 0.0 41.0 0.0 2.0 4.0 24.0 46.0 8.0 4.0 37.0; 0.0 0.0 0.0 0.0 0.0 0.0 0.0 0.0 0.0 0.0 0.0 0.0 0.0 15.0 10.0 2.0 1.0 34.0 45.0 3.0 4.0 0.0 43.0 34.0 28.0 33.0 8.0 5.0 1.0 1.0; 0.0 0.0 0.0 0.0 0.0 0.0 0.0 0.0 0.0 0.0 0.0 0.0 0.0 41.0 0.0 46.0 1.0 9.0 4.0 50.0 5.0 12.0 9.0 47.0 3.0 0.0 11.0 12.0 34.0 1.0; 0.0 0.0 0.0 0.0 0.0 0.0 0.0 0.0 0.0 0.0 0.0 0.0 0.0 0.0 0.0 4.0 48.0 34.0 3.0 44.0 0.0 5.0 45.0 5.0 2.0 42.0 16.0 14.0 1.0 2.0; 0.0 0.0 0.0 0.0 0.0 0.0 0.0 0.0 0.0 0.0 0.0 0.0 0.0 0.0 0.0 11.0 7.0 31.0 5.0 2.0 37.0 50.0 2.0 1.0 19.0 40.0 5.0 3.0 11.0 1.0; 0.0 0.0 0.0 0.0 0.0 0.0 0.0 0.0 0.0 0.0 0.0 0.0 0.0 0.0 0.0 0.0 50.0 4.0 50.0 44.0 2.0 38.0 0.0 6.0 41.0 40.0 21.0 10.0 0.0 48.0; 0.0 0.0 0.0 0.0 0.0 0.0 0.0 0.0 0.0 0.0 0.0 0.0 0.0 0.0 0.0 0.0 0.0 29.0 0.0 41.0 0.0 19.0 5.0 46.0 12.0 46.0 3.0 35.0 25.0 4.0; 0.0 0.0 0.0 0.0 0.0 0.0 0.0 0.0 0.0 0.0 0.0 0.0 0.0 0.0 0.0 0.0 0.0 0.0 2.0 20.0 11.0 4.0 47.0 41.0 8.0 43.0 44.0 4.0 0.0 48.0; 0.0 0.0 0.0 0.0 0.0 0.0 0.0 0.0 0.0 0.0 0.0 0.0 0.0 0.0 0.0 0.0 0.0 0.0 0.0 7.0 2.0 46.0 50.0 3.0 12.0 34.0 21.0 50.0 15.0 4.0; 0.0 0.0 0.0 0.0 0.0 0.0 0.0 0.0 0.0 0.0 0.0 0.0 0.0 0.0 0.0 0.0 0.0 0.0 0.0 0.0 3.0 0.0 8.0 48.0 44.0 9.0 1.0 2.0 32.0 3.0; 0.0 0.0 0.0 0.0 0.0 0.0 0.0 0.0 0.0 0.0 0.0 0.0 0.0 0.0 0.0 0.0 0.0 0.0 0.0 0.0 0.0 6.0 49.0 5.0 33.0 8.0 5.0 7.0 48.0 6.0; 0.0 0.0 0.0 0.0 0.0 0.0 0.0 0.0 0.0 0.0 0.0 0.0 0.0 0.0 0.0 0.0 0.0 0.0 0.0 0.0 0.0 0.0 42.0 50.0 40.0 5.0 3.0 50.0 5.0 0.0; 0.0 0.0 0.0 0.0 0.0 0.0 0.0 0.0 0.0 0.0 0.0 0.0 0.0 0.0 0.0 0.0 0.0 0.0 0.0 0.0 0.0 0.0 0.0 46.0 49.0 49.0 2.0 50.0 49.0 41.0; 0.0 0.0 0.0 0.0 0.0 0.0 0.0 0.0 0.0 0.0 0.0 0.0 0.0 0.0 0.0 0.0 0.0 0.0 0.0 0.0 0.0 0.0 0.0 0.0 45.0 43.0 50.0 46.0 8.0 9.0; 0.0 0.0 0.0 0.0 0.0 0.0 0.0 0.0 0.0 0.0 0.0 0.0 0.0 0.0 0.0 0.0 0.0 0.0 0.0 0.0 0.0 0.0 0.0 0.0 0.0 7.0 19.0 4.0 0.0 3.0; 0.0 0.0 0.0 0.0 0.0 0.0 0.0 0.0 0.0 0.0 0.0 0.0 0.0 0.0 0.0 0.0 0.0 0.0 0.0 0.0 0.0 0.0 0.0 0.0 0.0 0.0 6.0 44.0 50.0 41.0; 0.0 0.0 0.0 0.0 0.0 0.0 0.0 0.0 0.0 0.0 0.0 0.0 0.0 0.0 0.0 0.0 0.0 0.0 0.0 0.0 0.0 0.0 0.0 0.0 0.0 0.0 0.0 49.0 3.0 6.0; 0.0 0.0 0.0 0.0 0.0 0.0 0.0 0.0 0.0 0.0 0.0 0.0 0.0 0.0 0.0 0.0 0.0 0.0 0.0 0.0 0.0 0.0 0.0 0.0 0.0 0.0 0.0 0.0 16.0 47.0; 0.0 0.0 0.0 0.0 0.0 0.0 0.0 0.0 0.0 0.0 0.0 0.0 0.0 0.0 0.0 0.0 0.0 0.0 0.0 0.0 0.0 0.0 0.0 0.0 0.0 0.0 0.0 0.0 0.0 48.0; 0.0 0.0 0.0 0.0 0.0 0.0 0.0 0.0 0.0 0.0 0.0 0.0 0.0 0.0 0.0 0.0 0.0 0.0 0.0 0.0 0.0 0.0 0.0 0.0 0.0 0.0 0.0 0.0 0.0 0.0]
Q3 = [0 57 10 8 54 5 14 39 11 47 16 13 8 45 12 7 31 3 5 14 23 16 6 3 14 6 10 5 30 6; 0 0 7 27 47 1 16 19 70 57 16 4 18 23 50 23 12 21 9 69 14 17 18 16 2 1 8 40 4 1; 0 0 0 19 2 2 15 3 4 4 23 69 59 2 5 15 47 0 57 13 4 17 26 22 56 71 3 11 4 8; 0 0 0 0 6 7 2 19 0 9 16 0 10 48 23 17 14 13 14 18 25 64 3 17 13 4 25 60 1 14; 0 0 0 0 0 7 12 0 25 11 17 23 1 1 3 16 11 15 2 23 17 3 7 17 7 3 9 7 3 7; 0 0 0 0 0 0 9 11 2 55 12 3 4 0 14 10 11 8 2 18 5 5 7 60 25 63 18 7 20 15; 0 0 0 0 0 0 0 16 19 7 4 4 7 14 9 6 20 6 2 9 10 3 11 18 56 0 0 1 7 29; 0 0 0 0 0 0 0 0 18 2 16 26 16 13 1 16 8 9 14 13 21 4 20 3 14 1 14 13 1 9; 0 0 0 0 0 0 0 0 0 13 13 20 7 4 17 5 0 1 9 13 11 57 13 13 15 21 12 9 2 9; 0 0 0 0 0 0 0 0 0 0 14 18 8 7 1 46 63 16 8 21 11 20 8 5 9 6 0 5 11 11; 0 0 0 0 0 0 0 0 0 0 0 0 1 23 5 0 10 15 2 18 1 10 12 21 12 2 2 18 13 7; 0 0 0 0 0 0 0 0 0 0 0 0 19 6 6 55 8 11 12 1 61 7 11 7 12 1 5 22 0 25; 0 0 0 0 0 0 0 0 0 0 0 0 0 4 6 7 17 6 2 9 16 3 21 19 19 16 25 21 5 23; 0 0 0 0 0 0 0 0 0 0 0 0 0 0 14 16 2 10 42 6 22 3 12 12 22 7 8 21 4 9; 0 0 0 0 0 0 0 0 0 0 0 0 0 0 0 20 16 17 14 24 9 3 14 24 22 16 4 46 8 25; 0 0 0 0 0 0 0 0 0 0 0 0 0 0 0 0 0 12 6 0 9 6 13 50 5 4 18 17 15 5; 0 0 0 0 0 0 0 0 0 0 0 0 0 0 0 0 0 12 22 1 6 18 43 18 6 3 65 4 12 22; 0 0 0 0 0 0 0 0 0 0 0 0 0 0 0 0 0 0 8 5 7 22 3 9 20 20 10 9 16 9; 0 0 0 0 0 0 0 0 0 0 0 0 0 0 0 0 0 0 0 4 50 2 7 3 1 15 9 6 13 17; 0 0 0 0 0 0 0 0 0 0 0 0 0 0 0 0 0 0 0 0 4 15 24 3 15 25 4 42 14 25; 0 0 0 0 0 0 0 0 0 0 0 0 0 0 0 0 0 0 0 0 0 0 2 25 0 11 64 23 1 8; 0 0 0 0 0 0 0 0 0 0 0 0 0 0 0 0 0 0 0 0 0 0 1 15 3 13 13 4 19 16; 0 0 0 0 0 0 0 0 0 0 0 0 0 0 0 0 0 0 0 0 0 0 0 2 1 15 12 8 8 7; 0 0 0 0 0 0 0 0 0 0 0 0 0 0 0 0 0 0 0 0 0 0 0 0 5 1 4 10 53 10; 0 0 0 0 0 0 0 0 0 0 0 0 0 0 0 0 0 0 0 0 0 0 0 0 0 7 7 6 18 14; 0 0 0 0 0 0 0 0 0 0 0 0 0 0 0 0 0 0 0 0 0 0 0 0 0 0 9 18 1 2; 0 0 0 0 0 0 0 0 0 0 0 0 0 0 0 0 0 0 0 0 0 0 0 0 0 0 0 11 61 27; 0 0 0 0 0 0 0 0 0 0 0 0 0 0 0 0 0 0 0 0 0 0 0 0 0 0 0 0 3 9; 0 0 0 0 0 0 0 0 0 0 0 0 0 0 0 0 0 0 0 0 0 0 0 0 0 0 0 0 0 3; 0 0 0 0 0 0 0 0 0 0 0 0 0 0 0 0 0 0 0 0 0 0 0 0 0 0 0 0 0 0]
